10
-1 19 37 59 19 77 82 31 64 65
57 -1 0 46 21 32 67 41 16 47
97 48 -1 45 35 5 24 0 31 35
97 30 54 -1 89 26 63 72 57 27
89 66 1 89 -1 74 21 79 16 90
78 13 38 62 11 -1 67 35 26 98
70 23 81 76 10 70 -1 73 94 59
53 84 26 6 25 90 81 -1 22 49
89 0 14 79 63 25 5 30 -1 32
81 34 7 62 11 69 84 13 95 -1
